========================================================== 
File name: C:\DEGR\assets\definitions\MSRCPSP_Gen\200_10_64_5_C.def
Creation date: Wed May 03 10:45:48 CEST 2023
Website: http://imopse.ii.pwr.edu.pl/ 
Reference: 
Myszkowski P. B., Skowronski M. E., Olech L., Oslizlo K., 
Hybrid Ant Colony Optimization in solving Multi-Skill Resource-Constrained Project Scheduling Problem, 
Soft Computing, DOI: DOI 10.1007/s00500-014-1455-x 
========================================================== 
General characteristics: 
Tasks: 200
Resources: 10
Precedence relations: 63
Number of skill types: 5
========================================================== 
ResourceID 	 Salary 	 Skills 
1	 	 	27.9	 	 Q0: 2 	  Q2: 0 	  Q1: 3 	  Q3: 1 	 
2	 	 	33.1	 	 Q2: 0 	  Q1: 3 	  Q0: 2 	  Q3: 0 	 
3	 	 	88.6	 	 Q2: 1 	  Q4: 1 	 
4	 	 	58.6	 	 Q3: 3 	  Q4: 1 	  Q0: 2 	  Q1: 0 	 
5	 	 	43.3	 	 Q4: 1 	 
6	 	 	21.1	 	 Q3: 3 	  Q1: 0 	  Q4: 3 	 
7	 	 	38.1	 	 Q3: 0 	 
8	 	 	22.1	 	 Q3: 0 	  Q4: 3 	  Q2: 3 	  Q1: 0 	 
9	 	 	12.5	 	 Q4: 0 	  Q1: 0 	 
10	 	 	62.9	 	 Q0: 1 	  Q3: 0 	  Q2: 3 	  Q4: 0 	 
========================================================== 
TaskID 	 Duration 	 Skill 	 Predecessor IDs 
1	22	Q3:	0
2	35	Q0:	1
3	29	Q2:	1
4	38	Q4:	1
5	17	Q2:	1
6	39	Q1:	0
7	24	Q3:	3
8	22	Q2:	0
9	17	Q3:	1
10	29	Q3:	3
11	38	Q2:	0
12	26	Q3:	1
13	9	Q4:	3
14	11	Q1:	0
15	26	Q2:	1
16	25	Q4:	1
17	33	Q3:	1
18	29	Q0:	1
19	31	Q1:	0
20	38	Q4:	3
21	23	Q3:	1
22	24	Q2:	0
23	14	Q1:	3
24	26	Q4:	0
25	36	Q1:	0
26	31	Q3:	3
27	33	Q2:	0
28	13	Q3:	1
29	35	Q3:	1
30	26	Q0:	2
31	21	Q3:	0
32	21	Q0:	1
33	14	Q4:	3
34	9	Q2:	0
35	38	Q4:	3
36	35	Q3:	1
37	26	Q0:	2
38	20	Q2:	0
39	40	Q0:	1
40	32	Q3:	1
41	22	Q3:	3
42	23	Q2:	1	31
43	30	Q3:	3
44	13	Q4:	1
45	18	Q3:	1
46	40	Q2:	0
47	13	Q2:	3
48	17	Q0:	1
49	36	Q3:	0
50	13	Q4:	0
51	37	Q1:	0	42	17	38
52	30	Q4:	3
53	14	Q4:	1
54	33	Q0:	2	34
55	31	Q3:	1
56	38	Q2:	1
57	24	Q1:	0
58	38	Q1:	3
59	36	Q2:	1
60	30	Q2:	3
61	28	Q4:	1	20
62	34	Q2:	3
63	30	Q2:	3
64	37	Q4:	0
65	31	Q4:	1
66	31	Q1:	3
67	29	Q3:	0
68	15	Q0:	1
69	18	Q3:	3
70	37	Q4:	0
71	23	Q2:	0
72	40	Q0:	1	70
73	24	Q2:	3
74	17	Q4:	0
75	10	Q1:	0
76	27	Q4:	0
77	25	Q4:	1
78	24	Q4:	3
79	13	Q2:	0
80	32	Q4:	0
81	16	Q1:	3
82	22	Q4:	0	25
83	12	Q4:	3
84	37	Q4:	0
85	8	Q2:	0
86	27	Q3:	3	44
87	12	Q0:	1
88	26	Q4:	3
89	10	Q4:	1	19
90	40	Q0:	2
91	38	Q2:	1
92	15	Q1:	3
93	28	Q2:	3
94	14	Q2:	0
95	15	Q2:	0	65
96	16	Q4:	1
97	34	Q1:	3
98	40	Q3:	1
99	32	Q0:	1
100	27	Q3:	3	45
101	28	Q2:	3
102	13	Q4:	3
103	26	Q2:	3	89
104	12	Q1:	0
105	24	Q2:	0
106	31	Q4:	0
107	10	Q4:	1
108	15	Q3:	0	22
109	9	Q4:	1
110	30	Q4:	3	86	30
111	16	Q2:	3
112	32	Q4:	3	50
113	26	Q0:	1
114	34	Q2:	0
115	21	Q3:	0
116	20	Q4:	1
117	12	Q2:	0	13
118	13	Q1:	0
119	13	Q4:	0	87
120	18	Q3:	3	78
121	24	Q1:	0
122	31	Q3:	3	67
123	14	Q3:	1
124	29	Q3:	1
125	35	Q2:	0	15
126	30	Q0:	2
127	10	Q3:	1
128	35	Q3:	1	21
129	26	Q2:	1
130	22	Q2:	1	46
131	18	Q2:	3
132	38	Q4:	1
133	11	Q3:	1	67
134	18	Q3:	3	56
135	16	Q2:	0
136	23	Q3:	1
137	16	Q3:	0
138	17	Q0:	2	125
139	11	Q2:	1
140	16	Q1:	0
141	37	Q4:	3	80
142	26	Q2:	1	60
143	31	Q0:	2	114
144	20	Q3:	0	54
145	32	Q2:	1
146	31	Q3:	3	138
147	14	Q2:	3	23
148	10	Q0:	1
149	35	Q3:	3	109
150	22	Q2:	3
151	25	Q2:	0
152	24	Q2:	1	102
153	23	Q4:	0	136	2
154	12	Q4:	3
155	29	Q0:	1
156	28	Q3:	0
157	25	Q2:	1	3
158	10	Q3:	3	44
159	33	Q4:	1	97	150
160	30	Q2:	3
161	39	Q4:	3
162	25	Q3:	0
163	25	Q2:	1
164	10	Q0:	1
165	36	Q2:	1
166	23	Q2:	0
167	29	Q3:	3	51
168	38	Q0:	2
169	34	Q0:	1
170	34	Q2:	3	56
171	23	Q1:	0
172	30	Q2:	3	98
173	22	Q3:	3
174	33	Q0:	2
175	32	Q4:	1
176	25	Q2:	1	83
177	37	Q2:	0	165
178	18	Q4:	0
179	15	Q2:	0
180	33	Q0:	2	166
181	35	Q0:	2	61	145
182	29	Q3:	3	21	81
183	30	Q1:	3
184	16	Q3:	3	167
185	29	Q1:	3	128
186	39	Q4:	0
187	36	Q0:	2	69
188	18	Q3:	3	150
189	29	Q4:	0
190	23	Q1:	3	174
191	35	Q4:	1	144
192	24	Q4:	0
193	39	Q4:	0
194	17	Q3:	3	162	187
195	36	Q4:	3	120
196	30	Q0:	2	69
197	31	Q4:	1	124	110
198	24	Q2:	3
199	36	Q4:	3
200	20	Q1:	3
========================================================== 